82 99 52 86 59 87 75 97 58 77 74 
65 83 22 19 25 23 21 18 76 89 33 26 32 56 91 
95 84 85 63 51 64 57 20 49 48 24 66 
100 2 6 7 8 5 46 4 45 3 1 70 68 
90 
69 98 88 79 73 78 12 14 47 17 16 15 13 9 11 10 53 60 55 
93 71 72 81 61 42 44 39 38 40 43 36 35 37 41 54 96 
92 67 62 31 29 27 28 30 34 50 94 80 
